Translating instance to solver...

GLPSOL: GLPK LP/MIP Solver, v4.65
Parameter(s) specified in the command line:
 --tmlim 10 --mipgap 0.001 --write C:\Users\LUCASP~1\AppData\Local\Temp\tmp9usdlns8.glpk.raw
 --wglp C:\Users\LUCASP~1\AppData\Local\Temp\tmp7zrh2tf6.glpk.glp --cpxlp
 C:\Users\LUCASP~1\AppData\Local\Temp\tmpfmck70lp.pyomo.lp
Reading problem data from 'C:\Users\LUCASP~1\AppData\Local\Temp\tmpfmck70lp.pyomo.lp'...
C:\Users\LUCASP~1\AppData\Local\Temp\tmpfmck70lp.pyomo.lp:77276: warning: lower bound of variable 'x1' redefined
C:\Users\LUCASP~1\AppData\Local\Temp\tmpfmck70lp.pyomo.lp:77276: warning: upper bound of variable 'x1' redefined
12727 rows, 7643 columns, 31381 non-zeros
7642 integer variables, 7620 of which are binary
84896 lines were read
Writing problem data to 'C:\Users\LUCASP~1\AppData\Local\Temp\tmp7zrh2tf6.glpk.glp'...
59199 lines were written
GLPK Integer Optimizer, v4.65
12727 rows, 7643 columns, 31381 non-zeros
7642 integer variables, 7620 of which are binary
Preprocessing...
140 hidden packing inequaliti(es) were detected
1660 hidden covering inequaliti(es) were detected
99 constraint coefficient(s) were reduced
6885 rows, 3226 columns, 17953 non-zeros
3226 integer variables, 3205 of which are binary
Scaling...
 A: min|aij| =  1.000e+00  max|aij| =  2.100e+01  ratio =  2.100e+01
GM: min|aij| =  4.808e-01  max|aij| =  2.080e+00  ratio =  4.325e+00
EQ: min|aij| =  2.743e-01  max|aij| =  1.000e+00  ratio =  3.645e+00
2N: min|aij| =  2.500e-01  max|aij| =  1.375e+00  ratio =  5.500e+00
Constructing initial basis...
Size of triangular part is 6885
Solving LP relaxation...
GLPK Simplex Optimizer, v4.65
6885 rows, 3226 columns, 17953 non-zeros
      0: obj =   0.000000000e+00 inf =   1.031e+02 (105)
Perturbing LP to avoid stalling [324]...
    509: obj =   3.254455004e+00 inf =   3.333e-09 (0) 2
Removing LP perturbation [931]...
*   931: obj =   1.645174529e+00 inf =   1.411e-14 (0) 3
OPTIMAL LP SOLUTION FOUND
Integer optimization begins...
Long-step dual simplex will be used
+   931: mip =     not found yet >=              -inf        (1; 0)
+  2020: mip =     not found yet >=   1.653511562e+00        (19; 0)
+  2433: mip =     not found yet >=   1.681721444e+00        (44; 1)
TIME LIMIT EXCEEDED; SEARCH TERMINATED
Time used:   10.8 secs
Memory used: 12.4 Mb (13011304 bytes)
Writing MIP solution to 'C:\Users\LUCASP~1\AppData\Local\Temp\tmp9usdlns8.glpk.raw'...
20379 lines were written

Time in solver (for this epsilon): 11.351645946502686 s
Elapsed time (for this epsilon): 15.6121985912323 s


Total elapsed time since execution of first epsilon: 221.50056052207947 s


NO SOLUTION FOUND FOR THIS INSTANCE!
